p cnf 100 1
100 0
w 1 0.735841
w 2 1 0
w 2 -1 1
w 3 2 1
w 3 -2 0
w 4 3 0.59328
w 4 -3 0.175112
w 5 4 1
w 5 -4 0
w 6 5 0
w 6 -5 1
w 7 6 0
w 7 -6 1
w 8 7 0.919285
w 8 -7 0.0786638
w 9 8 1
w 9 -8 0
w 10 9 0
w 10 -9 1
w 11 1 0.578982
w 11 -1 0.0207861
w 12 11 2 0
w 12 11 -2 0
w 12 -11 2 1
w 12 -11 -2 0
w 13 12 3 1
w 13 12 -3 1
w 13 -12 3 0
w 13 -12 -3 1
w 14 13 4 1
w 14 13 -4 1
w 14 -13 4 0
w 14 -13 -4 0
w 15 14 5 0.324751
w 15 14 -5 0.551737
w 15 -14 5 0.297738
w 15 -14 -5 0.775936
w 16 15 6 1
w 16 15 -6 1
w 16 -15 6 0
w 16 -15 -6 1
w 17 16 7 0
w 17 16 -7 1
w 17 -16 7 1
w 17 -16 -7 0
w 18 17 8 0
w 18 17 -8 1
w 18 -17 8 1
w 18 -17 -8 0
w 19 18 9 0
w 19 18 -9 1
w 19 -18 9 1
w 19 -18 -9 1
w 20 19 10 1
w 20 19 -10 1
w 20 -19 10 0
w 20 -19 -10 1
w 21 11 1
w 21 -11 0
w 22 21 12 0.684571
w 22 21 -12 0.00350469
w 22 -21 12 0.0668117
w 22 -21 -12 0.912272
w 23 22 13 1
w 23 22 -13 0
w 23 -22 13 1
w 23 -22 -13 1
w 24 23 14 0
w 24 23 -14 0
w 24 -23 14 0
w 24 -23 -14 1
w 25 24 15 0
w 25 24 -15 1
w 25 -24 15 0
w 25 -24 -15 1
w 26 25 16 0.238341
w 26 25 -16 0.0511661
w 26 -25 16 0.251252
w 26 -25 -16 0.756581
w 27 26 17 1
w 27 26 -17 1
w 27 -26 17 0
w 27 -26 -17 1
w 28 27 18 1
w 28 27 -18 1
w 28 -27 18 0
w 28 -27 -18 0
w 29 28 19 1
w 29 28 -19 0
w 29 -28 19 0
w 29 -28 -19 0
w 30 29 20 0
w 30 29 -20 0
w 30 -29 20 0
w 30 -29 -20 1
w 31 21 0
w 31 -21 1
w 32 31 22 0
w 32 31 -22 1
w 32 -31 22 0
w 32 -31 -22 1
w 33 32 23 0
w 33 32 -23 1
w 33 -32 23 0
w 33 -32 -23 0
w 34 33 24 1
w 34 33 -24 0
w 34 -33 24 0
w 34 -33 -24 0
w 35 34 25 0
w 35 34 -25 0
w 35 -34 25 0
w 35 -34 -25 1
w 36 35 26 0
w 36 35 -26 0
w 36 -35 26 1
w 36 -35 -26 0
w 37 36 27 1
w 37 36 -27 0
w 37 -36 27 0
w 37 -36 -27 1
w 38 37 28 0.00143739
w 38 37 -28 0.651473
w 38 -37 28 0.0610738
w 38 -37 -28 0.908685
w 39 38 29 1
w 39 38 -29 0
w 39 -38 29 0
w 39 -38 -29 1
w 40 39 30 1
w 40 39 -30 0
w 40 -39 30 1
w 40 -39 -30 0
w 41 31 0
w 41 -31 1
w 42 41 32 0
w 42 41 -32 0
w 42 -41 32 1
w 42 -41 -32 0
w 43 42 33 0
w 43 42 -33 1
w 43 -42 33 0
w 43 -42 -33 1
w 44 43 34 0
w 44 43 -34 1
w 44 -43 34 1
w 44 -43 -34 0
w 45 44 35 0.740444
w 45 44 -35 0.420479
w 45 -44 35 0.735829
w 45 -44 -35 0.131633
w 46 45 36 0.749929
w 46 45 -36 0.51049
w 46 -45 36 0.888732
w 46 -45 -36 0.431386
w 47 46 37 0.994666
w 47 46 -37 0.240892
w 47 -46 37 0.0933189
w 47 -46 -37 0.201267
w 48 47 38 1
w 48 47 -38 0
w 48 -47 38 1
w 48 -47 -38 1
w 49 48 39 1
w 49 48 -39 1
w 49 -48 39 1
w 49 -48 -39 0
w 50 49 40 0
w 50 49 -40 1
w 50 -49 40 0
w 50 -49 -40 0
w 51 41 0
w 51 -41 1
w 52 51 42 1
w 52 51 -42 0
w 52 -51 42 1
w 52 -51 -42 1
w 53 52 43 0.0808911
w 53 52 -43 0.589725
w 53 -52 43 0.895528
w 53 -52 -43 0.0755574
w 54 53 44 0
w 54 53 -44 1
w 54 -53 44 0
w 54 -53 -44 1
w 55 54 45 0
w 55 54 -45 1
w 55 -54 45 1
w 55 -54 -45 1
w 56 55 46 1
w 56 55 -46 1
w 56 -55 46 0
w 56 -55 -46 1
w 57 56 47 1
w 57 56 -47 1
w 57 -56 47 1
w 57 -56 -47 0
w 58 57 48 1
w 58 57 -48 0
w 58 -57 48 1
w 58 -57 -48 0
w 59 58 49 1
w 59 58 -49 0
w 59 -58 49 0
w 59 -58 -49 1
w 60 59 50 1
w 60 59 -50 0
w 60 -59 50 1
w 60 -59 -50 0
w 61 51 1
w 61 -51 0
w 62 61 52 0
w 62 61 -52 1
w 62 -61 52 0
w 62 -61 -52 1
w 63 62 53 0.162035
w 63 62 -53 0.306666
w 63 -62 53 0.61746
w 63 -62 -53 0.617259
w 64 63 54 1
w 64 63 -54 0
w 64 -63 54 0
w 64 -63 -54 1
w 65 64 55 1
w 65 64 -55 0
w 65 -64 55 1
w 65 -64 -55 1
w 66 65 56 1
w 66 65 -56 0
w 66 -65 56 1
w 66 -65 -56 0
w 67 66 57 1
w 67 66 -57 0
w 67 -66 57 1
w 67 -66 -57 0
w 68 67 58 1
w 68 67 -58 0
w 68 -67 58 0
w 68 -67 -58 1
w 69 68 59 1
w 69 68 -59 0
w 69 -68 59 1
w 69 -68 -59 1
w 70 69 60 1
w 70 69 -60 1
w 70 -69 60 0
w 70 -69 -60 0
w 71 61 1
w 71 -61 0
w 72 71 62 1
w 72 71 -62 1
w 72 -71 62 0
w 72 -71 -62 1
w 73 72 63 0.478052
w 73 72 -63 0.715577
w 73 -72 63 0.289325
w 73 -72 -63 0.858187
w 74 73 64 1
w 74 73 -64 1
w 74 -73 64 1
w 74 -73 -64 0
w 75 74 65 0
w 75 74 -65 1
w 75 -74 65 1
w 75 -74 -65 1
w 76 75 66 0
w 76 75 -66 1
w 76 -75 66 1
w 76 -75 -66 0
w 77 76 67 1
w 77 76 -67 0
w 77 -76 67 1
w 77 -76 -67 0
w 78 77 68 0
w 78 77 -68 1
w 78 -77 68 1
w 78 -77 -68 1
w 79 78 69 0
w 79 78 -69 1
w 79 -78 69 1
w 79 -78 -69 1
w 80 79 70 0
w 80 79 -70 0
w 80 -79 70 1
w 80 -79 -70 0
w 81 71 0
w 81 -71 1
w 82 81 72 1
w 82 81 -72 0
w 82 -81 72 1
w 82 -81 -72 1
w 83 82 73 1
w 83 82 -73 0
w 83 -82 73 0
w 83 -82 -73 1
w 84 83 74 0
w 84 83 -74 0
w 84 -83 74 1
w 84 -83 -74 1
w 85 84 75 1
w 85 84 -75 0
w 85 -84 75 1
w 85 -84 -75 1
w 86 85 76 0
w 86 85 -76 0
w 86 -85 76 0
w 86 -85 -76 1
w 87 86 77 0
w 87 86 -77 1
w 87 -86 77 0
w 87 -86 -77 0
w 88 87 78 0
w 88 87 -78 1
w 88 -87 78 0
w 88 -87 -78 0
w 89 88 79 0
w 89 88 -79 1
w 89 -88 79 0
w 89 -88 -79 1
w 90 89 80 0
w 90 89 -80 0
w 90 -89 80 1
w 90 -89 -80 1
w 91 81 0
w 91 -81 1
w 92 91 82 0
w 92 91 -82 1
w 92 -91 82 1
w 92 -91 -82 0
w 93 92 83 0.189813
w 93 92 -83 0.461843
w 93 -92 83 0.040458
w 93 -92 -83 0.693522
w 94 93 84 0
w 94 93 -84 1
w 94 -93 84 1
w 94 -93 -84 1
w 95 94 85 0
w 95 94 -85 1
w 95 -94 85 1
w 95 -94 -85 1
w 96 95 86 0
w 96 95 -86 1
w 96 -95 86 0
w 96 -95 -86 0
w 97 96 87 0
w 97 96 -87 1
w 97 -96 87 0
w 97 -96 -87 0
w 98 97 88 1
w 98 97 -88 0
w 98 -97 88 0
w 98 -97 -88 0
w 99 98 89 1
w 99 98 -89 1
w 99 -98 89 1
w 99 -98 -89 0
w 100 99 90 0
w 100 99 -90 0
w 100 -99 90 1
w 100 -99 -90 1